\ENCODING=ISO-8859-1
\Problem name: IloCplex

Minimize
 obj1: - x1 - x2 - x4 - x5 + 1
Subject To
 c1:  3 x1 + 4 x2 + 6 x3 + 8 x4 + 9 x5 <= 10
 c2:  3 x1 + 4 x2 + 6 x3 + 8 x4 + 9 x5 <= 10
 c3:  3 x1 + 4 x2 + 6 x3 + 8 x4 + 9 x5 <= 10
 c4:  3 x1 + 4 x2 + 6 x3 + 8 x4 + 9 x5 <= 10
 c5:  3 x1 + 4 x2 + 6 x3 + 8 x4 + 9 x5 <= 10
 c6:  3 x1 + 4 x2 + 6 x3 + 8 x4 + 9 x5 <= 10
 c7:  3 x1 + 4 x2 + 6 x3 + 8 x4 + 9 x5 <= 10
 c8:  x1 + x2 <= 1
 c9:  3 x1 + 4 x2 + 6 x3 + 8 x4 + 9 x5 <= 10
 c10: x1 + x2 <= 1
 c11: 3 x1 + 4 x2 + 6 x3 + 8 x4 + 9 x5 <= 10
 c12: x1 + x2 <= 1
 c13: 3 x1 + 4 x2 + 6 x3 + 8 x4 + 9 x5 <= 10
 c14: x1 + x2 <= 1
 c15: 3 x1 + 4 x2 + 6 x3 + 8 x4 + 9 x5 <= 10
 c16: x1 + x2 <= 1
 c17: 3 x1 + 4 x2 + 6 x3 + 8 x4 + 9 x5 <= 10
 c18: x1 + x2 <= 1
Bounds
 0 <= x1 <= 1
 0 <= x2 <= 1
 0 <= x3 <= 1
 0 <= x4 <= 1
 0 <= x5 <= 1
Binaries
 x1  x2  x3  x4  x5 
End
